unsat
((set-logic NIA)
(declare-fun b!2 () Int)
(declare-fun r!1 () Int)
(declare-fun a!4 () Int)
(declare-fun s!0 () Int)
(declare-fun p!5 () Int)
(declare-fun q!3 () Int)
(proof
(let ((?x1882 (* r!1 b!2)))
 (let ((?x130 (* s00 a00)))
 (let ((?x1838 (+ ?x130 (* (- 1) (* r00 b00)) (* (- 1) (* s!0 a!4)) ?x1882)))
 (let (($x614 (>= ?x1838 0)))
 (let (($x1840 (= ?x1838 0)))
 (let ((?x1673 (* s!0 a!4)))
 (let ((?x148 (* r00 b00)))
 (let ((?x137 (* (- 1) ?x130)))
 (let ((?x788 (+ ?x137 ?x148 ?x1673 (* (- 1) ?x1882))))
 (let ((?x1072 (* (- 6) (* s!0 r!1 r!1 r!1 r!1 r!1 b!2 q!3 a!4 p!5))))
 (let ((?x1828 (* (- 1) (* r!1 r!1 r!1 r!1 r!1 r!1 b!2 q!3 q!3 a!4))))
 (let ((?x1480 (* (- 3) (* s!0 s!0 r!1 r!1 r!1 r!1 b!2 a!4 p!5 p!5))))
 (let ((?x444 (* 3 (* s!0 r!1 r!1 r!1 r!1 r!1 b!2 q!3 q!3 a!4))))
 (let ((?x1095 (* 3 (* s!0 s!0 r!1 r!1 r!1 r!1 q!3 q!3 a!4 a!4))))
 (let ((?x919 (* 2 (* r!1 r!1 r!1 r!1 r!1 r!1 b!2 q!3 a!4 p!5))))
 (let ((?x1424 (* (- 1) (* r!1 r!1 r!1 r!1 r!1 r!1 b!2 a!4 p!5 p!5))))
 (let ((?x1390 (* s!0 s!0 s!0 r!1 r!1 r!1 b!2 q!3 q!3 a!4)))
 (let ((?x1227 (* (- 2) (* r!1 r!1 r!1 r!1 r!1 r!1 q!3 a!4 a!4 p!5))))
 (let ((?x1222 (* (- 1) (* r!1 q!3 q!3 p!5 p!5 p!5))))
 (let ((?x1921 (* (- 3) (* s!0 r!1 r!1 r!1 r!1 r!1 a!4 a!4 p!5 p!5))))
 (let ((?x1082 (* 6 (* s!0 s!0 r!1 r!1 r!1 r!1 b!2 q!3 a!4 p!5))))
 (let ((?x1138 (* (- 1) (* s!0 s!0 s!0 r!1 r!1 r!1 q!3 q!3 a!4 a!4))))
 (let ((?x1135 (* (- 2) (* s!0 s!0 s!0 r!1 r!1 r!1 b!2 q!3 a!4 p!5))))
 (let ((?x1112 (* (- 1) (* s!0 s!0 s!0 r!1 r!1 r!1 a!4 a!4 p!5 p!5))))
 (let ((?x1103 (* (- 3) (* s!0 s!0 r!1 r!1 r!1 r!1 b!2 q!3 q!3 a!4))))
 (let ((?x730 (* 3 (* s!0 s!0 r!1 r!1 r!1 r!1 a!4 a!4 p!5 p!5))))
 (let ((?x676 (* 2 (* s!0 s!0 s!0 r!1 r!1 r!1 q!3 a!4 a!4 p!5))))
 (let ((?x585 (* 6 (* s!0 r!1 r!1 r!1 r!1 r!1 q!3 a!4 a!4 p!5))))
 (let ((?x656 (* (- 6) (* s!0 s!0 r!1 r!1 r!1 r!1 q!3 a!4 a!4 p!5))))
 (let ((?x985 (* (- 3) (* s!0 r!1 r!1 r!1 r!1 r!1 q!3 q!3 a!4 a!4))))
 (let ((?x1841 (* 3 (* s!0 r!1 r!1 r!1 r!1 r!1 b!2 a!4 p!5 p!5))))
 (let ((?x157 (* s!0 s!0 r!1 b!2 b!2 b!2 q!3)))
 (let ((?x1013 (+ ?x157 (* 6 (* s!0 r!1 r!1 b!2 b!2 q!3 a!4)) (* (- 2) (* s!0 r!1 r!1 b!2 b!2 b!2 q!3)) (* s!0 s!0 r!1 a!4 a!4 a!4 p!5) (* 3 (* s!0 s!0 r!1 b!2 b!2 a!4 p!5)) (* (- 1) (* s!0 s!0 r!1 b!2 b!2 b!2 p!5)) ?x1841 (* 3 (* s!0 s!0 r!1 b!2 q!3 a!4 a!4)) (* (- 6) (* s!0 r!1 r!1 b!2 q!3 a!4 a!4)) (* (- 2) (* s!0 r!1 r!1 a!4 a!4 a!4 p!5)) ?x985 (* 6 (* s!0 r!1 r!1 b!2 a!4 a!4 p!5)) (* (- 6) (* s!0 r!1 r!1 b!2 b!2 a!4 p!5)) (* 2 (* r!1 q!3 p!5 p!5 p!5 p!5)) ?x656 (* 2 (* s!0 r!1 r!1 q!3 a!4 a!4 a!4)) (* 2 (* s!0 r!1 r!1 b!2 b!2 b!2 p!5)) (* (- 1) (* r!1 p!5 p!5 p!5 p!5 p!5)) (* (- 3) (* s!0 s!0 r!1 b!2 b!2 q!3 a!4)) ?x585 (* (- 1) (* r!1 r!1 r!1 q!3 a!4 a!4 a!4)) (* s!0 s!0 s!0 r!1 r!1 r!1 b!2 a!4 p!5 p!5) ?x676 (* 3 (* r!1 r!1 r!1 b!2 b!2 a!4 p!5)) (* (- 3) (* s!0 s!0 r!1 b!2 a!4 a!4 p!5)) (* (- 1) (* s!0 s!0 r!1 q!3 a!4 a!4 a!4)) ?x730 ?x1103 ?x1112 ?x1135 ?x1138 (* r!1 r!1 r!1 a!4 a!4 a!4 p!5) (* (- 3) (* r!1 r!1 r!1 b!2 a!4 a!4 p!5)) (* (- 1) (* r!1 r!1 r!1 b!2 b!2 b!2 p!5)) (* 3 (* r!1 r!1 r!1 b!2 q!3 a!4 a!4)) (* (- 3) (* r!1 r!1 r!1 b!2 b!2 q!3 a!4)) (* r!1 r!1 r!1 b!2 b!2 b!2 q!3) ?x1082 ?x1921 ?x1222 ?x1227 ?x1390 (* r!1 r!1 r!1 r!1 r!1 r!1 a!4 a!4 p!5 p!5) ?x1424 ?x919 (* r!1 r!1 r!1 r!1 r!1 r!1 q!3 q!3 a!4 a!4) ?x1095 ?x444 ?x1480 ?x1828 ?x1072)))
 (let ((?x156 (* ?x1013 ?x788)))
 (let (($x1409 (= ?x156 0)))
 (let ((?x914 (* (- 1) (* s!0 s!0 s!0 s!0 s!0 s!0 b!2 q!3 q!3 a!4))))
 (let ((?x1441 (* (- 3) (* s!0 s!0 s!0 s!0 s!0 r!1 b!2 b!2 q!3 q!3))))
 (let ((?x1431 (* 3 (* s!0 s!0 s!0 s!0 s!0 r!1 b!2 q!3 q!3 a!4))))
 (let ((?x1417 (* 3 (* s!0 s!0 s!0 s!0 r!1 r!1 b!2 b!2 q!3 q!3))))
 (let ((?x1209 (* (- 3) (* s!0 s!0 s!0 s!0 r!1 r!1 b!2 q!3 q!3 a!4))))
 (let ((?x1405 (* (- 1) (* s!0 s!0 s!0 r!1 r!1 r!1 b!2 b!2 q!3 q!3))))
 (let ((?x1848 (+ ?x157 (* (- 1) (* s!0 s!0 s!0 b!2 b!2 b!2 q!3)) (* s!0 q!3 q!3 p!5 p!5 p!5) (* (- 3) (* s!0 q!3 q!3 q!3 p!5 p!5)) ?x1222 (* 3 (* r!1 q!3 q!3 q!3 p!5 p!5)) (* (- 3) (* r!1 q!3 q!3 q!3 q!3 p!5)) ?x1390 ?x1405 ?x1209 ?x1417 ?x1431 ?x1441 ?x914 (* s!0 s!0 s!0 s!0 s!0 s!0 b!2 b!2 q!3 q!3) (* 3 (* s!0 q!3 q!3 q!3 q!3 p!5)) (* (- 1) (* s!0 q!3 q!3 q!3 q!3 q!3)) (* r!1 q!3 q!3 q!3 q!3 q!3))))
 (let ((?x374 (* ?x1848 ?x788)))
 (let (($x1388 (= ?x374 0)))
 (let (($x831 (not $x1388)))
 (let (($x1406 (or $x831 (not $x1409))))
 (let ((?x1382 (+ (* p00 s00 b!2) (* r00 b00 q!3) (* (- 1) (* q00 r00 b!2)) (* (- 1) (* p00 b00 s!0)) (* (- 1) (* s00 a00 q!3)) (* q00 a00 s!0))))
 (let ((?x1332 (+ (* p00 b00 r!1) (* (- 1) (* r00 b00 p!5)) (* s00 a00 p!5) (* (- 1) (* q00 a00 r!1)) (* (- 1) (* p00 s00 a!4)) (* q00 r00 a!4))))
 (let ((?x136 (* q00 a00)))
 (let ((?x2093 (+ ?x136 (* (- 1) (* p00 b00)) (* b!2 p!5) (* (- 1) (* q!3 a!4)))))
 (let ((?x41 (* q00 r00)))
 (let ((?x399 (* (- 1) ?x41)))
 (let ((?x37 (* p00 s00)))
 (let (($x159 (and (= (+ ?x37 ?x399 (* r!1 q!3) (* (- 1) (* s!0 p!5))) 0) $x1840 (= ?x2093 0) (= ?x1332 0) (= ?x1382 0) $x1406)))
 (let ((?x1133 (+ (* a!4 s!0) (* (- 1) (* b!2 r!1)) ?x137 ?x148)))
 (let ((?x728 (* (- 1) (* a!4 a!4 q!3 q!3 r!1 r!1 r!1 s!0 s!0 s!0))))
 (let ((?x722 (* (- 2) (* p!5 a!4 q!3 b!2 r!1 r!1 r!1 s!0 s!0 s!0))))
 (let ((?x1239 (* 2 (* p!5 a!4 a!4 q!3 r!1 r!1 r!1 s!0 s!0 s!0))))
 (let ((?x754 (* (- 1) (* p!5 p!5 a!4 a!4 r!1 r!1 r!1 s!0 s!0 s!0))))
 (let ((?x744 (* (- 3) (* a!4 q!3 q!3 b!2 r!1 r!1 r!1 r!1 s!0 s!0))))
 (let ((?x1672 (* 3 (* a!4 a!4 q!3 q!3 r!1 r!1 r!1 r!1 s!0 s!0))))
 (let ((?x1506 (* 6 (* p!5 a!4 q!3 b!2 r!1 r!1 r!1 r!1 s!0 s!0))))
 (let ((?x2077 (* (- 6) (* p!5 a!4 a!4 q!3 r!1 r!1 r!1 r!1 s!0 s!0))))
 (let ((?x2069 (* (- 3) (* p!5 p!5 a!4 b!2 r!1 r!1 r!1 r!1 s!0 s!0))))
 (let ((?x1045 (* 3 (* p!5 p!5 a!4 a!4 r!1 r!1 r!1 r!1 s!0 s!0))))
 (let ((?x612 (* 3 (* a!4 q!3 q!3 b!2 r!1 r!1 r!1 r!1 r!1 s!0))))
 (let ((?x796 (* (- 3) (* a!4 a!4 q!3 q!3 r!1 r!1 r!1 r!1 r!1 s!0))))
 (let ((?x1724 (* (- 6) (* p!5 a!4 q!3 b!2 r!1 r!1 r!1 r!1 r!1 s!0))))
 (let ((?x1262 (* 6 (* p!5 a!4 a!4 q!3 r!1 r!1 r!1 r!1 r!1 s!0))))
 (let ((?x987 (* 3 (* p!5 p!5 a!4 b!2 r!1 r!1 r!1 r!1 r!1 s!0))))
 (let ((?x1304 (* (- 3) (* p!5 p!5 a!4 a!4 r!1 r!1 r!1 r!1 r!1 s!0))))
 (let ((?x1733 (* (- 1) (* a!4 q!3 q!3 b!2 r!1 r!1 r!1 r!1 r!1 r!1))))
 (let ((?x1761 (* 2 (* p!5 a!4 q!3 b!2 r!1 r!1 r!1 r!1 r!1 r!1))))
 (let ((?x1197 (* (- 2) (* p!5 a!4 a!4 q!3 r!1 r!1 r!1 r!1 r!1 r!1))))
 (let ((?x682 (* (- 1) (* p!5 p!5 a!4 b!2 r!1 r!1 r!1 r!1 r!1 r!1))))
 (let ((?x1847 (* q!3 b!2 b!2 b!2 r!1 s!0 s!0)))
 (let ((?x385 (* a!4 q!3 q!3 b!2 r!1 r!1 r!1 s!0 s!0 s!0)))
 (let ((?x649 (* (- 1) (* p!5 p!5 p!5 q!3 q!3 r!1))))
 (let ((?x1603 (+ ?x649 ?x385 ?x1847 (* p!5 p!5 a!4 a!4 r!1 r!1 r!1 r!1 r!1 r!1) ?x682 ?x1197 ?x1761 (* a!4 a!4 q!3 q!3 r!1 r!1 r!1 r!1 r!1 r!1) ?x1733 ?x1304 ?x987 ?x1262 ?x1724 ?x796 ?x612 ?x1045 ?x2069 ?x2077 ?x1506 ?x1672 ?x744 ?x754 (* p!5 p!5 a!4 b!2 r!1 r!1 r!1 s!0 s!0 s!0) ?x1239 ?x722 ?x728 (* p!5 a!4 a!4 a!4 r!1 r!1 r!1) (* (- 3) (* p!5 a!4 a!4 b!2 r!1 r!1 r!1)) (* 3 (* p!5 a!4 b!2 b!2 r!1 r!1 r!1)) (* (- 1) (* p!5 b!2 b!2 b!2 r!1 r!1 r!1)) (* (- 1) (* a!4 a!4 a!4 q!3 r!1 r!1 r!1)) (* 3 (* a!4 a!4 q!3 b!2 r!1 r!1 r!1)) (* (- 3) (* a!4 q!3 b!2 b!2 r!1 r!1 r!1)) (* q!3 b!2 b!2 b!2 r!1 r!1 r!1) (* (- 2) (* p!5 a!4 a!4 a!4 r!1 r!1 s!0)) (* 6 (* p!5 a!4 a!4 b!2 r!1 r!1 s!0)) (* (- 6) (* p!5 a!4 b!2 b!2 r!1 r!1 s!0)) (* 2 (* p!5 p!5 p!5 p!5 q!3 r!1)) (* 2 (* p!5 b!2 b!2 b!2 r!1 r!1 s!0)) (* 2 (* a!4 a!4 a!4 q!3 r!1 r!1 s!0)) (* (- 6) (* a!4 a!4 q!3 b!2 r!1 r!1 s!0)) (* 6 (* a!4 q!3 b!2 b!2 r!1 r!1 s!0)) (* (- 1) (* p!5 p!5 p!5 p!5 p!5 r!1)) (* (- 2) (* q!3 b!2 b!2 b!2 r!1 r!1 s!0)) (* p!5 a!4 a!4 a!4 r!1 s!0 s!0) (* (- 3) (* p!5 a!4 a!4 b!2 r!1 s!0 s!0)) (* 3 (* p!5 a!4 b!2 b!2 r!1 s!0 s!0)) (* (- 1) (* p!5 b!2 b!2 b!2 r!1 s!0 s!0)) (* (- 1) (* a!4 a!4 a!4 q!3 r!1 s!0 s!0)) (* 3 (* a!4 a!4 q!3 b!2 r!1 s!0 s!0)) (* (- 3) (* a!4 q!3 b!2 b!2 r!1 s!0 s!0)))))
 (let ((?x1505 (* (- 1) (* a!4 q!3 q!3 b!2 s!0 s!0 s!0 s!0 s!0 s!0))))
 (let ((?x452 (* (- 3) (* q!3 q!3 b!2 b!2 r!1 s!0 s!0 s!0 s!0 s!0))))
 (let ((?x869 (* 3 (* a!4 q!3 q!3 b!2 r!1 s!0 s!0 s!0 s!0 s!0))))
 (let ((?x862 (* 3 (* q!3 q!3 b!2 b!2 r!1 r!1 s!0 s!0 s!0 s!0))))
 (let ((?x1530 (* (- 3) (* a!4 q!3 q!3 b!2 r!1 r!1 s!0 s!0 s!0 s!0))))
 (let ((?x386 (* (- 1) (* q!3 q!3 b!2 b!2 r!1 r!1 r!1 s!0 s!0 s!0))))
 (let ((?x1325 (+ (* (- 3) (* p!5 q!3 q!3 q!3 q!3 r!1)) ?x649 ?x385 ?x386 ?x1530 ?x862 (* (- 3) (* p!5 p!5 q!3 q!3 q!3 s!0)) ?x869 ?x452 (* 3 (* p!5 p!5 q!3 q!3 q!3 r!1)) ?x1505 (* q!3 q!3 b!2 b!2 s!0 s!0 s!0 s!0 s!0 s!0) ?x1847 (* (- 1) (* q!3 b!2 b!2 b!2 s!0 s!0 s!0)) (* p!5 p!5 p!5 q!3 q!3 s!0) (* (- 1) (* q!3 q!3 q!3 q!3 q!3 s!0)) (* 3 (* p!5 q!3 q!3 q!3 q!3 s!0)) (* q!3 q!3 q!3 q!3 q!3 r!1))))
 (let ((?x1093 (+ (* b!2 q00 r00) (* (- 1) (* b!2 p00 s00)) (* s!0 p00 b00) (* (- 1) (* q!3 r00 b00)) (* q!3 s00 a00) (* (- 1) (* s!0 q00 a00)))))
 (let ((?x872 (+ (* a!4 p00 s00) (* (- 1) (* a!4 q00 r00)) (* p!5 r00 b00) (* (- 1) (* r!1 p00 b00)) (* (- 1) (* p!5 s00 a00)) (* r!1 q00 a00))))
 (let ((?x141 (* p00 b00)))
 (let ((?x182 (* (- 1) ?x136)))
 (let (($x1513 (= (+ (* p!5 s!0) (* (- 1) ?x37) ?x41 (* (- 1) (* q!3 r!1))) 0)))
 (let (($x197 (and $x1513 (= ?x1133 0) (= (+ (* a!4 q!3) ?x182 ?x141 (* (- 1) (* p!5 b!2))) 0) (= ?x872 0) (= ?x1093 0) (or (not (= (* ?x1325 ?x1133) 0)) (not (= (* ?x1603 ?x1133) 0))))))
 (let (($x956 (exists ((p Int) (a Int) (q Int) (b Int) (r Int) (s Int) )(! (let ((?x148 (* r00 b00)))
 (let ((?x130 (* s00 a00)))
 (let ((?x137 (* (- 1) ?x130)))
 (let ((?x125 (* (- 1) (* b r))))
 (let ((?x49 (* a s)))
 (let ((?x155 (+ ?x49 ?x125 ?x137 ?x148)))
 (let ((?x1779 (* (- 3) (* a q b b r s s))))
 (let ((?x1778 (* 3 (* a a q b r s s))))
 (let ((?x1714 (* (- 1) (* a a a q r s s))))
 (let ((?x1710 (* (- 1) (* p b b b r s s))))
 (let ((?x1777 (* 3 (* p a b b r s s))))
 (let ((?x1776 (* (- 3) (* p a a b r s s))))
 (let ((?x1650 (* p a a a r s s)))
 (let ((?x1775 (* (- 2) (* q b b b r r s))))
 (let ((?x1774 (* 6 (* a q b b r r s))))
 (let ((?x1773 (* (- 6) (* a a q b r r s))))
 (let ((?x1772 (* 2 (* a a a q r r s))))
 (let ((?x1771 (* 2 (* p b b b r r s))))
 (let ((?x1770 (* (- 6) (* p a b b r r s))))
 (let ((?x1769 (* 6 (* p a a b r r s))))
 (let ((?x1768 (* (- 2) (* p a a a r r s))))
 (let ((?x1395 (* q b b b r r r)))
 (let ((?x1767 (* (- 3) (* a q b b r r r))))
 (let ((?x1766 (* 3 (* a a q b r r r))))
 (let ((?x1341 (* (- 1) (* a a a q r r r))))
 (let ((?x1337 (* (- 1) (* p b b b r r r))))
 (let ((?x1765 (* 3 (* p a b b r r r))))
 (let ((?x1764 (* (- 3) (* p a a b r r r))))
 (let ((?x1277 (* p a a a r r r)))
 (let ((?x1170 (* (- 1) (* a a q q r r r s s s))))
 (let ((?x1195 (* (- 2) (* p a q b r r r s s s))))
 (let ((?x1194 (* 2 (* p a a q r r r s s s))))
 (let ((?x1131 (* p p a b r r r s s s)))
 (let ((?x1125 (* (- 1) (* p p a a r r r s s s))))
 (let ((?x1193 (* (- 3) (* a q q b r r r r s s))))
 (let ((?x1192 (* 3 (* a a q q r r r r s s))))
 (let ((?x1191 (* 6 (* p a q b r r r r s s))))
 (let ((?x1190 (* (- 6) (* p a a q r r r r s s))))
 (let ((?x1189 (* (- 3) (* p p a b r r r r s s))))
 (let ((?x1188 (* 3 (* p p a a r r r r s s))))
 (let ((?x1187 (* 3 (* a q q b r r r r r s))))
 (let ((?x1186 (* (- 3) (* a a q q r r r r r s))))
 (let ((?x1185 (* (- 6) (* p a q b r r r r r s))))
 (let ((?x1183 (* 6 (* p a a q r r r r r s))))
 (let ((?x1181 (* 3 (* p p a b r r r r r s))))
 (let ((?x1180 (* (- 3) (* p p a a r r r r r s))))
 (let ((?x748 (* (- 1) (* a q q b r r r r r r))))
 (let ((?x738 (* a a q q r r r r r r)))
 (let ((?x1179 (* 2 (* p a q b r r r r r r))))
 (let ((?x1177 (* (- 2) (* p a a q r r r r r r))))
 (let ((?x702 (* (- 1) (* p p a b r r r r r r))))
 (let ((?x690 (* p p a a r r r r r r)))
 (let ((?x550 (* q b b b r s s)))
 (let ((?x403 (* a q q b r r r s s s)))
 (let ((?x343 (* (- 1) (* p p p q q r))))
 (let ((?x2040 (+ ?x343 ?x403 ?x550 ?x690 ?x702 ?x1177 ?x1179 ?x738 ?x748 ?x1180 ?x1181 ?x1183 ?x1185 ?x1186 ?x1187 ?x1188 ?x1189 ?x1190 ?x1191 ?x1192 ?x1193 ?x1125 ?x1131 ?x1194 ?x1195 ?x1170 ?x1277 ?x1764 ?x1765 ?x1337 ?x1341 ?x1766 ?x1767 ?x1395 ?x1768 ?x1769 ?x1770 (* 2 (* p p p p q r)) ?x1771 ?x1772 ?x1773 ?x1774 (* (- 1) (* p p p p p r)) ?x1775 ?x1650 ?x1776 ?x1777 ?x1710 ?x1714 ?x1778 ?x1779)))
 (let ((?x560 (* (- 1) (* q b b b s s s))))
 (let ((?x519 (* q q b b s s s s s s)))
 (let ((?x513 (* (- 1) (* a q q b s s s s s s))))
 (let ((?x532 (* (- 3) (* q q b b r s s s s s))))
 (let ((?x531 (* 3 (* a q q b r s s s s s))))
 (let ((?x530 (* 3 (* q q b b r r s s s s))))
 (let ((?x528 (* (- 3) (* a q q b r r s s s s))))
 (let ((?x407 (* (- 1) (* q q b b r r r s s s))))
 (let ((?x1470 (+ (* (- 3) (* p q q q q r)) ?x343 ?x403 ?x407 ?x528 ?x530 (* (- 3) (* p p q q q s)) ?x531 ?x532 (* 3 (* p p q q q r)) ?x513 ?x519 ?x550 ?x560 (* p p p q q s) (* (- 1) (* q q q q q s)) (* 3 (* p q q q q s)) (* q q q q q r))))
 (let ((?x72 (* b q00 r00)))
 (let ((?x314 (+ ?x72 (* (- 1) (* b p00 s00)) (* s p00 b00) (* (- 1) (* q r00 b00)) (* q s00 a00) (* (- 1) (* s q00 a00)))))
 (let (($x319 (= ?x314 0)))
 (let ((?x63 (* a p00 s00)))
 (let ((?x250 (+ ?x63 (* (- 1) (* a q00 r00)) (* p r00 b00) (* (- 1) (* r p00 b00)) (* (- 1) (* p s00 a00)) (* r q00 a00))))
 (let (($x251 (= ?x250 0)))
 (let ((?x141 (* p00 b00)))
 (let ((?x136 (* q00 a00)))
 (let ((?x182 (* (- 1) ?x136)))
 (let (($x185 (= (+ (* a q) ?x182 ?x141 (* (- 1) (* p b))) 0)))
 (let (($x163 (= ?x155 0)))
 (let ((?x41 (* q00 r00)))
 (let ((?x37 (* p00 s00)))
 (let ((?x139 (* (- 1) ?x37)))
 (let ((?x33 (* p s)))
 (let (($x158 (= (+ ?x33 ?x139 ?x41 (* (- 1) (* q r))) 0)))
 (and $x158 $x163 $x185 $x251 $x319 (or (not (= (* ?x1470 ?x155) 0)) (not (= (* ?x2040 ?x155) 0))))))))))))))))))))))))))))))))))))))))))))))))))))))))))))))))))))))))))))))))))))) :qid k!39))
 ))
 (let (($x118 (exists ((p Int) (a Int) (q Int) (b Int) (r Int) (s Int) )(! (let ((?x51 (* b00 r00)))
 (let ((?x47 (* a00 s00)))
 (let ((?x1300 (* (- 1) ?x47)))
 (let ((?x285 (+ (* (- 1) (* (+ b (* (- 1) a)) r)) ?x1300 (* (+ s (* (- 1) r)) a) ?x51)))
 (let ((?x578 (* (- 1) p)))
 (let ((?x1711 (+ q ?x578)))
 (let ((?x340 (* (- 1) a)))
 (let ((?x1570 (+ b ?x340)))
 (let ((?x341 (+ s (* (- 1) r))))
 (let ((?x877 (+ (* (- 1) (* ?x1711 ?x1711 r p p p)) (* ?x341 ?x341 ?x341 ?x1570 ?x1711 ?x1711 r r r a) (* ?x341 ?x341 ?x1570 ?x1570 ?x1570 ?x1711 r))))
 (let ((?x712 (+ (* (- 1) (* (+ r (* (- 1) s)) b)) ?x1300 (* (+ a (* (- 1) b)) s) ?x51)))
 (let ((?x489 (+ a (* (- 1) b))))
 (let ((?x260 (* (- 1) s)))
 (let ((?x1289 (+ r ?x260)))
 (let ((?x335 (* (- 1) q)))
 (let ((?x377 (+ p ?x335)))
 (let ((?x595 (+ (* (- 1) (* ?x1289 ?x377 ?x377 ?x377 q q)) (* ?x1289 ?x1289 ?x1289 ?x489 s s s b q q) (* ?x1289 s s b b b q))))
 (let (($x1662 (or (not (= (* ?x595 ?x712) 0)) (not (= (* ?x877 ?x285) 0)))))
 (let ((?x73 (* b00 p00 s)))
 (let ((?x278 (+ (* q00 r00 b) ?x73 (* (- 1) (* b00 r00 q)) (* (- 1) (* p00 s00 b)) (* a00 s00 q) (* (- 1) (* a00 q00 s)))))
 (let (($x289 (= ?x278 0)))
 (let ((?x69 (* a00 q00 r)))
 (let ((?x1491 (* p00 s00 a)))
 (let ((?x324 (* b00 r00 p)))
 (let ((?x379 (+ ?x324 ?x1491 (* (- 1) (* b00 p00 r)) (* (- 1) (* q00 r00 a)) (* (- 1) (* a00 s00 p)) ?x69)))
 (let ((?x57 (* b00 p00)))
 (let ((?x957 (* q a)))
 (let (($x955 (= (+ ?x957 (* (- 1) (* a00 q00)) ?x57 (* (- 1) (* b p))) 0)))
 (let (($x1006 (= (+ (* r b) ?x47 (* (- 1) (* s a)) (* (- 1) ?x51)) 0)))
 (let ((?x41 (* q00 r00)))
 (let ((?x399 (* (- 1) ?x41)))
 (let ((?x37 (* p00 s00)))
 (let ((?x950 (* r q)))
 (and (= (+ ?x950 (* (- 1) (* s p)) ?x37 ?x399) 0) $x1006 $x955 (= ?x379 0) $x289 $x1662)))))))))))))))))))))))))))))))))) :qid k!39))
 ))
 (let ((?x961 (lambda ((p Int) (a Int) (q Int) (b Int) (r Int) (s Int) )(let ((?x148 (* r00 b00)))
 (let ((?x130 (* s00 a00)))
 (let ((?x137 (* (- 1) ?x130)))
 (let ((?x125 (* (- 1) (* b r))))
 (let ((?x49 (* a s)))
 (let ((?x155 (+ ?x49 ?x125 ?x137 ?x148)))
 (let ((?x1779 (* (- 3) (* a q b b r s s))))
 (let ((?x1778 (* 3 (* a a q b r s s))))
 (let ((?x1714 (* (- 1) (* a a a q r s s))))
 (let ((?x1710 (* (- 1) (* p b b b r s s))))
 (let ((?x1777 (* 3 (* p a b b r s s))))
 (let ((?x1776 (* (- 3) (* p a a b r s s))))
 (let ((?x1650 (* p a a a r s s)))
 (let ((?x1775 (* (- 2) (* q b b b r r s))))
 (let ((?x1774 (* 6 (* a q b b r r s))))
 (let ((?x1773 (* (- 6) (* a a q b r r s))))
 (let ((?x1772 (* 2 (* a a a q r r s))))
 (let ((?x1771 (* 2 (* p b b b r r s))))
 (let ((?x1770 (* (- 6) (* p a b b r r s))))
 (let ((?x1769 (* 6 (* p a a b r r s))))
 (let ((?x1768 (* (- 2) (* p a a a r r s))))
 (let ((?x1395 (* q b b b r r r)))
 (let ((?x1767 (* (- 3) (* a q b b r r r))))
 (let ((?x1766 (* 3 (* a a q b r r r))))
 (let ((?x1341 (* (- 1) (* a a a q r r r))))
 (let ((?x1337 (* (- 1) (* p b b b r r r))))
 (let ((?x1765 (* 3 (* p a b b r r r))))
 (let ((?x1764 (* (- 3) (* p a a b r r r))))
 (let ((?x1277 (* p a a a r r r)))
 (let ((?x1170 (* (- 1) (* a a q q r r r s s s))))
 (let ((?x1195 (* (- 2) (* p a q b r r r s s s))))
 (let ((?x1194 (* 2 (* p a a q r r r s s s))))
 (let ((?x1131 (* p p a b r r r s s s)))
 (let ((?x1125 (* (- 1) (* p p a a r r r s s s))))
 (let ((?x1193 (* (- 3) (* a q q b r r r r s s))))
 (let ((?x1192 (* 3 (* a a q q r r r r s s))))
 (let ((?x1191 (* 6 (* p a q b r r r r s s))))
 (let ((?x1190 (* (- 6) (* p a a q r r r r s s))))
 (let ((?x1189 (* (- 3) (* p p a b r r r r s s))))
 (let ((?x1188 (* 3 (* p p a a r r r r s s))))
 (let ((?x1187 (* 3 (* a q q b r r r r r s))))
 (let ((?x1186 (* (- 3) (* a a q q r r r r r s))))
 (let ((?x1185 (* (- 6) (* p a q b r r r r r s))))
 (let ((?x1183 (* 6 (* p a a q r r r r r s))))
 (let ((?x1181 (* 3 (* p p a b r r r r r s))))
 (let ((?x1180 (* (- 3) (* p p a a r r r r r s))))
 (let ((?x748 (* (- 1) (* a q q b r r r r r r))))
 (let ((?x738 (* a a q q r r r r r r)))
 (let ((?x1179 (* 2 (* p a q b r r r r r r))))
 (let ((?x1177 (* (- 2) (* p a a q r r r r r r))))
 (let ((?x702 (* (- 1) (* p p a b r r r r r r))))
 (let ((?x690 (* p p a a r r r r r r)))
 (let ((?x550 (* q b b b r s s)))
 (let ((?x403 (* a q q b r r r s s s)))
 (let ((?x343 (* (- 1) (* p p p q q r))))
 (let ((?x2040 (+ ?x343 ?x403 ?x550 ?x690 ?x702 ?x1177 ?x1179 ?x738 ?x748 ?x1180 ?x1181 ?x1183 ?x1185 ?x1186 ?x1187 ?x1188 ?x1189 ?x1190 ?x1191 ?x1192 ?x1193 ?x1125 ?x1131 ?x1194 ?x1195 ?x1170 ?x1277 ?x1764 ?x1765 ?x1337 ?x1341 ?x1766 ?x1767 ?x1395 ?x1768 ?x1769 ?x1770 (* 2 (* p p p p q r)) ?x1771 ?x1772 ?x1773 ?x1774 (* (- 1) (* p p p p p r)) ?x1775 ?x1650 ?x1776 ?x1777 ?x1710 ?x1714 ?x1778 ?x1779)))
 (let ((?x560 (* (- 1) (* q b b b s s s))))
 (let ((?x519 (* q q b b s s s s s s)))
 (let ((?x513 (* (- 1) (* a q q b s s s s s s))))
 (let ((?x532 (* (- 3) (* q q b b r s s s s s))))
 (let ((?x531 (* 3 (* a q q b r s s s s s))))
 (let ((?x530 (* 3 (* q q b b r r s s s s))))
 (let ((?x528 (* (- 3) (* a q q b r r s s s s))))
 (let ((?x407 (* (- 1) (* q q b b r r r s s s))))
 (let ((?x1470 (+ (* (- 3) (* p q q q q r)) ?x343 ?x403 ?x407 ?x528 ?x530 (* (- 3) (* p p q q q s)) ?x531 ?x532 (* 3 (* p p q q q r)) ?x513 ?x519 ?x550 ?x560 (* p p p q q s) (* (- 1) (* q q q q q s)) (* 3 (* p q q q q s)) (* q q q q q r))))
 (let ((?x72 (* b q00 r00)))
 (let ((?x314 (+ ?x72 (* (- 1) (* b p00 s00)) (* s p00 b00) (* (- 1) (* q r00 b00)) (* q s00 a00) (* (- 1) (* s q00 a00)))))
 (let (($x319 (= ?x314 0)))
 (let ((?x63 (* a p00 s00)))
 (let ((?x250 (+ ?x63 (* (- 1) (* a q00 r00)) (* p r00 b00) (* (- 1) (* r p00 b00)) (* (- 1) (* p s00 a00)) (* r q00 a00))))
 (let (($x251 (= ?x250 0)))
 (let ((?x141 (* p00 b00)))
 (let ((?x136 (* q00 a00)))
 (let ((?x182 (* (- 1) ?x136)))
 (let (($x185 (= (+ (* a q) ?x182 ?x141 (* (- 1) (* p b))) 0)))
 (let (($x163 (= ?x155 0)))
 (let ((?x41 (* q00 r00)))
 (let ((?x37 (* p00 s00)))
 (let ((?x139 (* (- 1) ?x37)))
 (let ((?x33 (* p s)))
 (let (($x158 (= (+ ?x33 ?x139 ?x41 (* (- 1) (* q r))) 0)))
 (let (($x2130 (and $x158 $x163 $x185 $x251 $x319 (or (not (= (* ?x1470 ?x155) 0)) (not (= (* ?x2040 ?x155) 0))))))
 (let ((?x51 (* b00 r00)))
 (let ((?x47 (* a00 s00)))
 (let ((?x1300 (* (- 1) ?x47)))
 (let ((?x285 (+ (* (- 1) (* (+ b (* (- 1) a)) r)) ?x1300 (* (+ s (* (- 1) r)) a) ?x51)))
 (let ((?x578 (* (- 1) p)))
 (let ((?x1711 (+ q ?x578)))
 (let ((?x340 (* (- 1) a)))
 (let ((?x1570 (+ b ?x340)))
 (let ((?x341 (+ s (* (- 1) r))))
 (let ((?x877 (+ (* (- 1) (* ?x1711 ?x1711 r p p p)) (* ?x341 ?x341 ?x341 ?x1570 ?x1711 ?x1711 r r r a) (* ?x341 ?x341 ?x1570 ?x1570 ?x1570 ?x1711 r))))
 (let ((?x712 (+ (* (- 1) (* (+ r (* (- 1) s)) b)) ?x1300 (* (+ a (* (- 1) b)) s) ?x51)))
 (let ((?x489 (+ a (* (- 1) b))))
 (let ((?x260 (* (- 1) s)))
 (let ((?x1289 (+ r ?x260)))
 (let ((?x335 (* (- 1) q)))
 (let ((?x377 (+ p ?x335)))
 (let ((?x595 (+ (* (- 1) (* ?x1289 ?x377 ?x377 ?x377 q q)) (* ?x1289 ?x1289 ?x1289 ?x489 s s s b q q) (* ?x1289 s s b b b q))))
 (let (($x1662 (or (not (= (* ?x595 ?x712) 0)) (not (= (* ?x877 ?x285) 0)))))
 (let ((?x73 (* b00 p00 s)))
 (let ((?x278 (+ (* q00 r00 b) ?x73 (* (- 1) (* b00 r00 q)) (* (- 1) (* p00 s00 b)) (* a00 s00 q) (* (- 1) (* a00 q00 s)))))
 (let (($x289 (= ?x278 0)))
 (let ((?x69 (* a00 q00 r)))
 (let ((?x1491 (* p00 s00 a)))
 (let ((?x324 (* b00 r00 p)))
 (let ((?x379 (+ ?x324 ?x1491 (* (- 1) (* b00 p00 r)) (* (- 1) (* q00 r00 a)) (* (- 1) (* a00 s00 p)) ?x69)))
 (let ((?x57 (* b00 p00)))
 (let ((?x957 (* q a)))
 (let (($x955 (= (+ ?x957 (* (- 1) (* a00 q00)) ?x57 (* (- 1) (* b p))) 0)))
 (let (($x1006 (= (+ (* r b) ?x47 (* (- 1) (* s a)) (* (- 1) ?x51)) 0)))
 (let (($x1086 (= (+ (* r q) (* (- 1) (* s p)) ?x37 (* (- 1) ?x41)) 0)))
 (let (($x1438 (and $x1086 $x1006 $x955 (= ?x379 0) $x289 $x1662)))
 (rewrite (= $x1438 $x2130))))))))))))))))))))))))))))))))))))))))))))))))))))))))))))))))))))))))))))))))))))))))))))))))))))))))))))))))))))
 ))
 (let (($x543 (exists ((p Int) (a Int) (q Int) (b Int) (r Int) (s Int) )(! (let ((?x51 (* b00 r00)))
 (let ((?x47 (* a00 s00)))
 (let ((?x1300 (* (- 1) ?x47)))
 (let ((?x285 (+ (* (- 1) (* (+ b (* (- 1) a)) r)) ?x1300 (* (+ s (* (- 1) r)) a) ?x51)))
 (let ((?x578 (* (- 1) p)))
 (let ((?x1711 (+ q ?x578)))
 (let ((?x340 (* (- 1) a)))
 (let ((?x1570 (+ b ?x340)))
 (let ((?x341 (+ s (* (- 1) r))))
 (let ((?x877 (+ (* (- 1) (* ?x1711 ?x1711 r p p p)) (* ?x341 ?x341 ?x341 ?x1570 ?x1711 ?x1711 r r r a) (* ?x341 ?x341 ?x1570 ?x1570 ?x1570 ?x1711 r))))
 (let ((?x712 (+ (* (- 1) (* (+ r (* (- 1) s)) b)) ?x1300 (* (+ a (* (- 1) b)) s) ?x51)))
 (let ((?x489 (+ a (* (- 1) b))))
 (let ((?x260 (* (- 1) s)))
 (let ((?x1289 (+ r ?x260)))
 (let ((?x335 (* (- 1) q)))
 (let ((?x377 (+ p ?x335)))
 (let ((?x595 (+ (* (- 1) (* ?x1289 ?x377 ?x377 ?x377 q q)) (* ?x1289 ?x1289 ?x1289 ?x489 s s s b q q) (* ?x1289 s s b b b q))))
 (let (($x1662 (or (not (= (* ?x595 ?x712) 0)) (not (= (* ?x877 ?x285) 0)))))
 (let ((?x73 (* b00 p00 s)))
 (let ((?x278 (+ (* q00 r00 b) ?x73 (* (- 1) (* b00 r00 q)) (* (- 1) (* p00 s00 b)) (* a00 s00 q) (* (- 1) (* a00 q00 s)))))
 (let (($x289 (= ?x278 0)))
 (let ((?x888 (* a00 s00 p)))
 (let ((?x1003 (* q00 r00 a)))
 (let ((?x65 (* b00 p00 r)))
 (let ((?x1077 (+ (* (- 1) (* b00 r00 p)) (* (- 1) (* p00 s00 a)) ?x65 ?x1003 ?x888 (* (- 1) (* a00 q00 r)))))
 (let ((?x59 (* b p)))
 (let ((?x55 (* a00 q00)))
 (let (($x1315 (= (+ (* (- 1) (* q a)) ?x55 (* (- 1) (* b00 p00)) ?x59) 0)))
 (let ((?x41 (* q00 r00)))
 (let ((?x37 (* p00 s00)))
 (let ((?x139 (* (- 1) ?x37)))
 (let ((?x905 (* s p)))
 (and (= (+ (* (- 1) (* r q)) ?x905 ?x139 ?x41) 0) (= (+ (* (- 1) (* r b)) ?x1300 (* s a) ?x51) 0) $x1315 (= ?x1077 0) $x289 $x1662))))))))))))))))))))))))))))))))) :qid k!39))
 ))
 (let ((?x1497 (lambda ((p Int) (a Int) (q Int) (b Int) (r Int) (s Int) )(let ((?x51 (* b00 r00)))
 (let ((?x47 (* a00 s00)))
 (let ((?x1300 (* (- 1) ?x47)))
 (let ((?x285 (+ (* (- 1) (* (+ b (* (- 1) a)) r)) ?x1300 (* (+ s (* (- 1) r)) a) ?x51)))
 (let ((?x578 (* (- 1) p)))
 (let ((?x1711 (+ q ?x578)))
 (let ((?x340 (* (- 1) a)))
 (let ((?x1570 (+ b ?x340)))
 (let ((?x341 (+ s (* (- 1) r))))
 (let ((?x877 (+ (* (- 1) (* ?x1711 ?x1711 r p p p)) (* ?x341 ?x341 ?x341 ?x1570 ?x1711 ?x1711 r r r a) (* ?x341 ?x341 ?x1570 ?x1570 ?x1570 ?x1711 r))))
 (let ((?x712 (+ (* (- 1) (* (+ r (* (- 1) s)) b)) ?x1300 (* (+ a (* (- 1) b)) s) ?x51)))
 (let ((?x489 (+ a (* (- 1) b))))
 (let ((?x260 (* (- 1) s)))
 (let ((?x1289 (+ r ?x260)))
 (let ((?x335 (* (- 1) q)))
 (let ((?x377 (+ p ?x335)))
 (let ((?x595 (+ (* (- 1) (* ?x1289 ?x377 ?x377 ?x377 q q)) (* ?x1289 ?x1289 ?x1289 ?x489 s s s b q q) (* ?x1289 s s b b b q))))
 (let (($x1662 (or (not (= (* ?x595 ?x712) 0)) (not (= (* ?x877 ?x285) 0)))))
 (let ((?x73 (* b00 p00 s)))
 (let ((?x278 (+ (* q00 r00 b) ?x73 (* (- 1) (* b00 r00 q)) (* (- 1) (* p00 s00 b)) (* a00 s00 q) (* (- 1) (* a00 q00 s)))))
 (let (($x289 (= ?x278 0)))
 (let ((?x69 (* a00 q00 r)))
 (let ((?x1491 (* p00 s00 a)))
 (let ((?x324 (* b00 r00 p)))
 (let ((?x379 (+ ?x324 ?x1491 (* (- 1) (* b00 p00 r)) (* (- 1) (* q00 r00 a)) (* (- 1) (* a00 s00 p)) ?x69)))
 (let ((?x57 (* b00 p00)))
 (let ((?x957 (* q a)))
 (let (($x955 (= (+ ?x957 (* (- 1) (* a00 q00)) ?x57 (* (- 1) (* b p))) 0)))
 (let (($x1006 (= (+ (* r b) ?x47 (* (- 1) (* s a)) (* (- 1) ?x51)) 0)))
 (let ((?x41 (* q00 r00)))
 (let ((?x399 (* (- 1) ?x41)))
 (let ((?x37 (* p00 s00)))
 (let ((?x950 (* r q)))
 (let (($x1438 (and (= (+ ?x950 (* (- 1) (* s p)) ?x37 ?x399) 0) $x1006 $x955 (= ?x379 0) $x289 $x1662)))
 (let ((?x888 (* a00 s00 p)))
 (let ((?x1003 (* q00 r00 a)))
 (let ((?x65 (* b00 p00 r)))
 (let (($x1475 (= (+ (* (- 1) ?x324) (* (- 1) ?x1491) ?x65 ?x1003 ?x888 (* (- 1) ?x69)) 0)))
 (let (($x1315 (= (+ (* (- 1) ?x957) (* a00 q00) (* (- 1) ?x57) (* b p)) 0)))
 (let (($x898 (and (= (+ (* (- 1) ?x950) (* s p) (* (- 1) ?x37) ?x41) 0) (= (+ (* (- 1) (* r b)) ?x1300 (* s a) ?x51) 0) $x1315 $x1475 $x289 $x1662)))
 (rewrite (= $x898 $x1438)))))))))))))))))))))))))))))))))))))))))))
 ))
 (let (($x114 (exists ((p Int) (a Int) (q Int) (b Int) (r Int) (s Int) )(! (let ((?x101 (- s r)))
 (let ((?x104 (- q p)))
 (let ((?x98 (- b a)))
 (let ((?x108 (+ (* (- 1) p p p ?x104 ?x104 r) (* a ?x98 ?x104 ?x104 r r r ?x101 ?x101 ?x101) (* ?x98 ?x98 ?x98 ?x104 r ?x101 ?x101))))
 (let ((?x51 (* b00 r00)))
 (let ((?x109 (* (+ (- (* (- 1) ?x98 r) (* a00 s00)) (* a ?x101) ?x51) ?x108)))
 (let ((?x84 (- r s)))
 (let ((?x87 (- a b)))
 (let ((?x90 (- p q)))
 (let ((?x31 (- 1)))
 (let ((?x94 (+ (* ?x31 ?x90 ?x90 ?x90 q q ?x84) (* ?x87 b q q ?x84 ?x84 ?x84 s s s) (* b b b q ?x84 s s))))
 (let ((?x95 (* (+ (- (* ?x31 b ?x84) (* a00 s00)) (* ?x87 s) ?x51) ?x94)))
 (let ((?x81 (* a00 q00 s)))
 (let ((?x76 (* b p00 s00)))
 (let ((?x77 (- (+ (* b q00 r00) (* b00 p00 s)) (* b00 q r00))))
 (let ((?x69 (* a00 q00 r)))
 (let ((?x66 (* a q00 r00)))
 (let ((?x65 (* b00 p00 r)))
 (let ((?x68 (+ (- (* ?x31 b00 p r00) (* a p00 s00)) ?x65 ?x66 (* a00 p s00))))
 (let ((?x59 (* b p)))
 (let ((?x60 (+ (- (+ (* ?x31 a q) (* a00 q00)) (* b00 p00)) ?x59)))
 (let (($x53 (= (+ (- (* ?x31 b r) (* a00 s00)) (* a s) ?x51) 0)))
 (let ((?x41 (* q00 r00)))
 (let (($x44 (= (+ (- (+ (* ?x31 q r) (* p s)) (* p00 s00)) ?x41) 0)))
 (and $x44 $x53 (= ?x60 0) (= (- ?x68 ?x69) 0) (= (- (+ (- ?x77 ?x76) (* a00 q s00)) ?x81) 0) (or (not (= ?x95 0)) (not (= ?x109 0)))))))))))))))))))))))))))) :qid k!39))
 ))
 (let ((?x1474 (lambda ((p Int) (a Int) (q Int) (b Int) (r Int) (s Int) )(let ((?x51 (* b00 r00)))
 (let ((?x47 (* a00 s00)))
 (let ((?x1300 (* (- 1) ?x47)))
 (let ((?x285 (+ (* (- 1) (* (+ b (* (- 1) a)) r)) ?x1300 (* (+ s (* (- 1) r)) a) ?x51)))
 (let ((?x578 (* (- 1) p)))
 (let ((?x1711 (+ q ?x578)))
 (let ((?x340 (* (- 1) a)))
 (let ((?x1570 (+ b ?x340)))
 (let ((?x341 (+ s (* (- 1) r))))
 (let ((?x877 (+ (* (- 1) (* ?x1711 ?x1711 r p p p)) (* ?x341 ?x341 ?x341 ?x1570 ?x1711 ?x1711 r r r a) (* ?x341 ?x341 ?x1570 ?x1570 ?x1570 ?x1711 r))))
 (let ((?x712 (+ (* (- 1) (* (+ r (* (- 1) s)) b)) ?x1300 (* (+ a (* (- 1) b)) s) ?x51)))
 (let ((?x489 (+ a (* (- 1) b))))
 (let ((?x260 (* (- 1) s)))
 (let ((?x1289 (+ r ?x260)))
 (let ((?x335 (* (- 1) q)))
 (let ((?x377 (+ p ?x335)))
 (let ((?x595 (+ (* (- 1) (* ?x1289 ?x377 ?x377 ?x377 q q)) (* ?x1289 ?x1289 ?x1289 ?x489 s s s b q q) (* ?x1289 s s b b b q))))
 (let (($x1662 (or (not (= (* ?x595 ?x712) 0)) (not (= (* ?x877 ?x285) 0)))))
 (let ((?x73 (* b00 p00 s)))
 (let ((?x278 (+ (* q00 r00 b) ?x73 (* (- 1) (* b00 r00 q)) (* (- 1) (* p00 s00 b)) (* a00 s00 q) (* (- 1) (* a00 q00 s)))))
 (let (($x289 (= ?x278 0)))
 (let ((?x888 (* a00 s00 p)))
 (let ((?x1003 (* q00 r00 a)))
 (let ((?x65 (* b00 p00 r)))
 (let ((?x1077 (+ (* (- 1) (* b00 r00 p)) (* (- 1) (* p00 s00 a)) ?x65 ?x1003 ?x888 (* (- 1) (* a00 q00 r)))))
 (let ((?x59 (* b p)))
 (let ((?x55 (* a00 q00)))
 (let (($x1315 (= (+ (* (- 1) (* q a)) ?x55 (* (- 1) (* b00 p00)) ?x59) 0)))
 (let ((?x41 (* q00 r00)))
 (let ((?x37 (* p00 s00)))
 (let ((?x139 (* (- 1) ?x37)))
 (let ((?x905 (* s p)))
 (let (($x898 (and (= (+ (* (- 1) (* r q)) ?x905 ?x139 ?x41) 0) (= (+ (* (- 1) (* r b)) ?x1300 (* s a) ?x51) 0) $x1315 (= ?x1077 0) $x289 $x1662)))
 (let ((?x101 (- s r)))
 (let ((?x104 (- q p)))
 (let ((?x98 (- b a)))
 (let ((?x108 (+ (* (- 1) p p p ?x104 ?x104 r) (* a ?x98 ?x104 ?x104 r r r ?x101 ?x101 ?x101) (* ?x98 ?x98 ?x98 ?x104 r ?x101 ?x101))))
 (let (($x110 (= (* (+ (- (* (- 1) ?x98 r) ?x47) (* a ?x101) ?x51) ?x108) 0)))
 (let ((?x84 (- r s)))
 (let ((?x87 (- a b)))
 (let ((?x90 (- p q)))
 (let ((?x31 (- 1)))
 (let ((?x94 (+ (* ?x31 ?x90 ?x90 ?x90 q q ?x84) (* ?x87 b q q ?x84 ?x84 ?x84 s s s) (* b b b q ?x84 s s))))
 (let (($x96 (= (* (+ (- (* ?x31 b ?x84) ?x47) (* ?x87 s) ?x51) ?x94) 0)))
 (let ((?x81 (* a00 q00 s)))
 (let ((?x76 (* b p00 s00)))
 (let ((?x80 (+ (- (- (+ (* b q00 r00) ?x73) (* b00 q r00)) ?x76) (* a00 q s00))))
 (let ((?x69 (* a00 q00 r)))
 (let ((?x66 (* a q00 r00)))
 (let ((?x68 (+ (- (* ?x31 b00 p r00) (* a p00 s00)) ?x65 ?x66 (* a00 p s00))))
 (let (($x113 (and (= (+ (- (+ (* ?x31 q r) (* p s)) ?x37) ?x41) 0) (= (+ (- (* ?x31 b r) ?x47) (* a s) ?x51) 0) (= (+ (- (+ (* ?x31 a q) ?x55) (* b00 p00)) ?x59) 0) (= (- ?x68 ?x69) 0) (= (- ?x80 ?x81) 0) (or (not $x96) (not $x110)))))
 (rewrite (= $x113 $x898))))))))))))))))))))))))))))))))))))))))))))))))))))))
 ))
 (let ((@x115 (asserted $x114)))
 (let ((@x1084 (mp (mp @x115 (quant-intro (proof-bind ?x1474) (= $x114 $x543)) $x543) (rewrite (= $x543 $x543)) $x543)))
 (let ((@x1109 (mp (mp @x1084 (quant-intro (proof-bind ?x1497) (= $x543 $x118)) $x118) (quant-intro (proof-bind ?x961) (= $x118 $x956)) $x956)))
 (let ((@x1306 (mp (mp~ @x1109 (sk (~ $x956 $x197)) $x197) (rewrite (= $x197 $x159)) $x159)))
 (let ((@x1336 (and-elim @x1306 $x1840)))
 (let ((@x1354 (unit-resolution ((_ th-lemma arith triangle-eq) (or (not $x1840) $x614)) @x1336 $x614)))
 (let (($x609 (<= ?x1838 0)))
 (let ((@x1353 (unit-resolution ((_ th-lemma arith triangle-eq) (or (not $x1840) $x609)) @x1336 $x609)))
 (let (($x1381 (not (<= ?x374 0))))
 (let (($x401 (>= ?x156 0)))
 (let (($x400 (<= ?x156 0)))
 (let ((@x1376 (unit-resolution ((_ th-lemma arith triangle-eq) (or $x1409 (not $x400) (not $x401))) (lemma ((_ th-lemma arith farkas 1 1 1) (hypothesis (not $x400)) @x1353 @x1354 false) $x400) (lemma ((_ th-lemma arith farkas 1 1 1) (hypothesis (not $x401)) @x1353 @x1354 false) $x401) $x1409)))
 (let (($x792 (>= ?x374 0)))
 (let ((@x1959 (unit-resolution ((_ th-lemma arith triangle-eq) (or $x1388 $x1381 (not $x792))) (lemma ((_ th-lemma arith farkas 1 1 1) (hypothesis (not $x792)) @x1353 @x1354 false) $x792) (unit-resolution (and-elim @x1306 $x1406) @x1376 $x831) $x1381)))
 ((_ th-lemma arith farkas 1 1 1) @x1959 @x1353 @x1354 false))))))))))))))))))))))))))))))))))))))))))))))))))))))))))))))))))))))))))))))))))))))))))))))))))))))))))))))))))))

(:added-eqs                 6
 :arith-assert-diseq        3
 :arith-assert-lower        39
 :arith-assert-upper        18
 :arith-conflicts           4
 :arith-eq-adapter          7
 :arith-fixed-eqs           6
 :arith-max-min             848
 :arith-nonlinear-bounds    20
 :arith-num-rows            8
 :arith-pivots              5
 :arith-pseudo-nonlinear    8
 :arith-row-summations      1
 :arith-tableau-max-columns 119
 :arith-tableau-max-rows    8
 :conflicts                 4
 :decisions                 7
 :del-clause                15
 :final-checks              4
 :max-memory                3.86
 :memory                    3.27
 :mk-bool-var               27
 :mk-clause                 24
 :num-allocs                1273342
 :num-checks                1
 :propagations              19
 :rlimit-count              9569
 :time                      0.01
 :total-time                0.02)
